Using license file /home/benedond/gurobi.lic
Using gurobi.env file
Set parameter Threads to value 1
Academic license - for non-commercial use only
Changed value of parameter TimeLimit to 300.0
   Prev: inf  Min: 0.0  Max: inf  Default: inf
Gurobi Optimizer version 9.0.1 build v9.0.1rc0 (linux64)
Optimize a model with 1700 rows, 840 columns and 6478 nonzeros
Model fingerprint: 0x31b9d454
Variable types: 20 continuous, 820 integer (800 binary)
Coefficient statistics:
  Matrix range     [2e-01, 2e+03]
  Objective range  [1e-03, 4e-01]
  Bounds range     [1e+00, 1e+00]
  RHS range        [1e+00, 2e+03]

---------------------------------------------------------------------------
Multi-objectives: starting optimization with 1 objectives ... 
---------------------------------------------------------------------------
---------------------------------------------------------------------------

Multi-objectives: optimize objective 1 (min avg power cons) ...
---------------------------------------------------------------------------

Optimize a model with 1700 rows, 840 columns and 6478 nonzeros
Variable types: 20 continuous, 820 integer (800 binary)
Coefficient statistics:
  Matrix range     [2e-01, 2e+03]
  Objective range  [1e-03, 4e-01]
  Bounds range     [1e+00, 1e+00]
  RHS range        [1e+00, 2e+03]
Presolve removed 1102 rows and 546 columns
Presolve time: 0.05s
Presolved: 598 rows, 294 columns, 4338 nonzeros
Variable types: 15 continuous, 279 integer (264 binary)

Root relaxation: objective 1.894097e+00, 176 iterations, 0.00 seconds

    Nodes    |    Current Node    |     Objective Bounds      |     Work
 Expl Unexpl |  Obj  Depth IntInf | Incumbent    BestBd   Gap | It/Node Time

     0     0    1.89410    0   65          -    1.89410      -     -    0s
H    0     0                       5.0494866    1.89410  62.5%     -    0s
H    0     0                       4.8810947    1.89410  61.2%     -    0s
     0     0    2.12380    0   64    4.88109    2.12380  56.5%     -    0s
H    0     0                       4.3887973    2.12380  51.6%     -    0s
     0     0    2.13148    0   67    4.38880    2.13148  51.4%     -    0s
     0     0    2.28161    0   70    4.38880    2.28161  48.0%     -    0s
H    0     0                       4.0906757    2.28161  44.2%     -    0s
     0     0    2.28278    0   75    4.09068    2.28278  44.2%     -    0s
     0     0    2.50601    0   70    4.09068    2.50601  38.7%     -    0s
H    0     0                       4.0437703    2.50601  38.0%     -    0s
     0     0    2.52833    0   59    4.04377    2.52833  37.5%     -    0s
     0     0    2.53453    0   72    4.04377    2.53453  37.3%     -    0s
     0     0    2.53654    0   69    4.04377    2.53654  37.3%     -    0s
     0     0    2.53732    0   69    4.04377    2.53732  37.3%     -    0s
     0     0    2.53732    0   70    4.04377    2.53732  37.3%     -    0s
     0     0    2.58943    0   72    4.04377    2.58943  36.0%     -    0s
H    0     0                       4.0399865    2.58943  35.9%     -    0s
     0     0    2.61877    0   70    4.03999    2.61877  35.2%     -    0s
     0     0    2.62407    0   74    4.03999    2.62407  35.0%     -    0s
     0     0    2.62787    0   72    4.03999    2.62787  35.0%     -    0s
     0     0    2.62868    0   73    4.03999    2.62868  34.9%     -    0s
     0     0    2.62914    0   72    4.03999    2.62914  34.9%     -    0s
     0     0    2.62997    0   80    4.03999    2.62997  34.9%     -    0s
     0     0    2.63000    0   82    4.03999    2.63000  34.9%     -    0s
     0     0    2.65305    0   71    4.03999    2.65305  34.3%     -    0s
     0     0    2.66104    0   82    4.03999    2.66104  34.1%     -    0s
     0     0    2.66752    0   84    4.03999    2.66752  34.0%     -    0s
     0     0    2.66778    0   85    4.03999    2.66778  34.0%     -    0s
     0     0    2.66783    0   86    4.03999    2.66783  34.0%     -    0s
     0     0    2.67156    0   83    4.03999    2.67156  33.9%     -    0s
     0     0    2.67162    0   86    4.03999    2.67162  33.9%     -    0s
     0     0    2.67351    0   78    4.03999    2.67351  33.8%     -    0s
     0     0    2.67358    0   82    4.03999    2.67358  33.8%     -    0s
     0     0    2.67551    0   76    4.03999    2.67551  33.8%     -    0s
     0     0    2.67551    0   73    4.03999    2.67551  33.8%     -    0s
H    0     0                       4.0303514    2.67563  33.6%     -    0s
H    0     0                       3.9188784    2.67563  31.7%     -    0s
     0     2    2.67563    0   73    3.91888    2.67563  31.7%     -    0s
H   55    26                       3.9104055    2.72892  30.2%  28.1    0s
H   84    31                       3.8666217    2.72892  29.4%  25.5    0s
H  138    65                       3.8152297    2.73549  28.3%  24.1    0s
H  165    61                       3.6577433    2.73582  25.2%  23.4    0s
H  375   134                       3.6501352    2.87442  21.3%  24.4    0s
H 1033   327                       3.6413649    3.01887  17.1%  25.6    1s
  2551   650    3.24207   34   49    3.64136    3.04363  16.4%  28.4    5s
  7223  1749     cutoff   28         3.64136    3.26310  10.4%  26.2   10s
 10202  2319    3.58338   39   20    3.64136    3.33454  8.43%  25.0   15s
 14454  2866    3.59653   27   42    3.64136    3.40021  6.62%  24.4   20s
 19666  3150     cutoff   32         3.64136    3.45568  5.10%  24.0   25s
 25320  2370     cutoff   39         3.64136    3.51678  3.42%  23.3   30s
 32825   902    3.61628   39   15    3.64136    3.59366  1.31%  21.2   35s

Cutting planes:
  Learned: 6
  Gomory: 6
  Cover: 11
  Implied bound: 127
  Projected implied bound: 21
  Clique: 4
  MIR: 115
  Flow cover: 179
  GUB cover: 19
  Inf proof: 13
  Zero half: 1
  Mod-K: 6
  RLT: 2
  Relax-and-lift: 170

Explored 34650 nodes (716666 simplex iterations) in 35.99 seconds
Thread count was 1 (of 4 available processors)

Solution count 10: 3.64136 3.65014 3.65774 ... 4.04377

Optimal solution found (tolerance 1.00e-04)
Best objective 3.641364918609e+00, best bound 3.641099676318e+00, gap 0.0073%

---------------------------------------------------------------------------
Multi-objectives: solved in 35.99 seconds, solution count 10

